NAME : in_house_8_7
TYPE : TSP
DIMENSION : 8
EDGE_WEIGHT_TYPE : EXPLICIT
EDGE_WEIGHT_FORMAT : UPPER_ROW
COMMENT : INVERSION_SHIFT=6
EDGE_WEIGHT_SECTION
42
61
61
9
30
6
63
25
28
27
33
10
16
46
43
18
59
27
63
49
52
24
2
7
46
17
2
60
